p cnf 549 1515
1 0
2 0
3 0
4 0
5 0
6 0
-7 0
8 0
9 0
10 0
11 0
12 0
13 0
14 0
15 0
16 0
17 0
18 0
19 0
20 0
21 0
22 0
23 0
24 0
25 0
26 0
27 -28 0
-29 27 0
-30 27 0
-31 27 0
27 -32 0
27 -33 0
27 -34 0
27 -35 0
27 -36 0
-37 27 0
-38 27 0
39 0
1 -27 0
-1 27 0
-29 40 0
-30 40 0
-31 40 0
-32 40 0
-33 40 0
-34 40 0
-35 40 0
-36 40 0
-37 40 0
-38 40 0
41 0
42 -40 0
-42 40 0
-30 43 0
-31 43 0
-32 43 0
-33 43 0
-34 43 0
-35 43 0
-36 43 0
-37 43 0
-38 43 0
44 0
45 -43 0
-45 43 0
-31 46 0
-32 46 0
-33 46 0
-34 46 0
-35 46 0
-36 46 0
-37 46 0
-38 46 0
47 0
48 -46 0
-48 46 0
-32 49 0
-33 49 0
-34 49 0
-35 49 0
-36 49 0
-37 49 0
-38 49 0
50 0
51 -49 0
-51 49 0
-33 52 0
-34 52 0
-35 52 0
-36 52 0
-37 52 0
-38 52 0
33 34 35 36 37 38 -52 0
53 -52 0
-53 52 0
54 -52 0
-54 52 0
55 -52 0
-55 52 0
56 -52 0
-56 52 0
57 -52 0
-57 52 0
-38 58 0
-33 58 0
-34 58 0
-35 58 0
-36 58 0
-37 58 0
38 33 34 35 36 37 -58 0
59 -58 0
-59 58 0
-60 61 0
-62 61 0
61 -63 0
-64 61 0
61 -65 0
61 -66 0
-67 61 0
-68 61 0
69 0
2 -61 0
-2 61 0
-62 70 0
-63 70 0
-64 70 0
-65 70 0
-66 70 0
-67 70 0
-68 70 0
71 0
72 -70 0
-72 70 0
-63 73 0
-64 73 0
-65 73 0
-66 73 0
-67 73 0
-68 73 0
74 0
75 -73 0
-75 73 0
-64 76 0
-65 76 0
-66 76 0
-67 76 0
-68 76 0
64 65 66 67 68 -76 0
77 -76 0
-77 76 0
78 -76 0
-78 76 0
79 -76 0
-79 76 0
80 -76 0
-80 76 0
81 -76 0
-81 76 0
82 -83 0
-84 82 0
82 -85 0
82 -86 0
82 -87 0
82 -88 0
-89 82 0
-90 82 0
-91 82 0
82 -92 0
-93 82 0
94 0
3 -82 0
-3 82 0
-84 95 0
-85 95 0
-86 95 0
-87 95 0
-88 95 0
-89 95 0
-90 95 0
-91 95 0
-92 95 0
-93 95 0
96 0
97 -95 0
-97 95 0
-85 98 0
-86 98 0
-87 98 0
-88 98 0
-89 98 0
-90 98 0
-91 98 0
-92 98 0
-93 98 0
99 0
100 -98 0
-100 98 0
-86 101 0
-87 101 0
-88 101 0
-89 101 0
-90 101 0
-91 101 0
-92 101 0
-93 101 0
102 0
103 -101 0
-103 101 0
-87 104 0
-88 104 0
-89 104 0
-90 104 0
-91 104 0
-92 104 0
-93 104 0
105 0
106 -104 0
-106 104 0
-88 107 0
-89 107 0
-90 107 0
-91 107 0
-92 107 0
-93 107 0
108 0
109 -107 0
-109 107 0
110 -107 0
-110 107 0
111 -107 0
-111 107 0
112 -107 0
-112 107 0
113 -107 0
-113 107 0
114 -107 0
-114 107 0
-87 115 0
-88 115 0
-89 115 0
-90 115 0
-91 115 0
-92 115 0
-93 115 0
115 -116 0
115 -117 0
115 -118 0
-119 115 0
120 0
4 -115 0
-4 115 0
-87 121 0
-88 121 0
-89 121 0
-90 121 0
-91 121 0
-92 121 0
-93 121 0
-117 121 0
-118 121 0
-119 121 0
122 0
123 -121 0
-123 121 0
-87 124 0
-88 124 0
-89 124 0
-90 124 0
-91 124 0
-92 124 0
-93 124 0
-118 124 0
-119 124 0
125 0
126 -124 0
-126 124 0
-87 127 0
-88 127 0
-89 127 0
-90 127 0
-91 127 0
-92 127 0
-93 127 0
-119 127 0
128 0
129 -127 0
-129 127 0
-64 130 0
-65 130 0
-66 130 0
-67 130 0
-68 130 0
130 -131 0
130 -132 0
-133 130 0
130 -134 0
135 0
5 -130 0
-5 130 0
-64 136 0
-65 136 0
-66 136 0
-67 136 0
-68 136 0
-132 136 0
-133 136 0
-134 136 0
137 0
138 -136 0
-138 136 0
-64 139 0
-65 139 0
-66 139 0
-67 139 0
-68 139 0
-133 139 0
-134 139 0
140 0
141 -139 0
-141 139 0
-64 142 0
-65 142 0
-66 142 0
-67 142 0
-68 142 0
-134 142 0
143 0
144 -142 0
-144 142 0
-145 146 0
146 -147 0
146 -148 0
-149 146 0
145 147 148 149 -146 0
6 -146 0
-6 146 0
-147 150 0
-148 150 0
-149 150 0
147 148 149 -150 0
151 -150 0
-151 150 0
-148 152 0
-149 152 0
148 149 -152 0
153 -152 0
-153 152 0
7 -149 0
-7 149 0
-64 154 0
-65 154 0
-66 154 0
-67 154 0
-68 154 0
154 -155 0
-156 154 0
154 -157 0
-158 154 0
159 0
8 -154 0
-8 154 0
-64 160 0
-65 160 0
-66 160 0
-67 160 0
-68 160 0
-156 160 0
-157 160 0
-158 160 0
161 0
162 -160 0
-162 160 0
-64 163 0
-65 163 0
-66 163 0
-67 163 0
-68 163 0
-157 163 0
-158 163 0
164 0
165 -163 0
-165 163 0
-64 166 0
-65 166 0
-66 166 0
-67 166 0
-68 166 0
-158 166 0
167 0
168 -166 0
-168 166 0
-169 170 0
-171 170 0
-172 170 0
170 -173 0
-174 170 0
-175 170 0
170 -176 0
-177 170 0
170 -178 0
170 -179 0
180 0
9 -170 0
-9 170 0
-171 181 0
-172 181 0
-173 181 0
-174 181 0
-175 181 0
-176 181 0
-177 181 0
-178 181 0
-179 181 0
182 0
183 -181 0
-183 181 0
-172 184 0
-173 184 0
-174 184 0
-175 184 0
-176 184 0
-177 184 0
-178 184 0
-179 184 0
185 0
186 -184 0
-186 184 0
-173 187 0
-174 187 0
-175 187 0
-176 187 0
-177 187 0
-178 187 0
-179 187 0
188 0
189 -187 0
-189 187 0
-174 190 0
-175 190 0
-176 190 0
-177 190 0
-178 190 0
-179 190 0
191 0
192 -190 0
-192 190 0
-175 193 0
-176 193 0
-177 193 0
-178 193 0
-179 193 0
175 176 177 178 179 -193 0
194 -193 0
-194 193 0
-176 195 0
-177 195 0
-178 195 0
-179 195 0
176 177 178 179 -195 0
196 -195 0
-196 195 0
197 -195 0
-197 195 0
198 -195 0
-198 195 0
199 -195 0
-199 195 0
200 -201 0
200 -202 0
-203 200 0
-204 200 0
-205 200 0
200 -206 0
-207 200 0
-208 200 0
-209 200 0
200 -210 0
200 -211 0
212 0
10 -200 0
-10 200 0
-202 213 0
-203 213 0
-204 213 0
-205 213 0
-206 213 0
-207 213 0
-208 213 0
-209 213 0
-210 213 0
-211 213 0
214 0
215 -213 0
-215 213 0
-203 216 0
-204 216 0
-205 216 0
-206 216 0
-207 216 0
-208 216 0
-209 216 0
-210 216 0
-211 216 0
217 0
218 -216 0
-218 216 0
-204 219 0
-205 219 0
-206 219 0
-207 219 0
-208 219 0
-209 219 0
-210 219 0
-211 219 0
220 0
221 -219 0
-221 219 0
-205 222 0
-206 222 0
-207 222 0
-208 222 0
-209 222 0
-210 222 0
-211 222 0
223 0
224 -222 0
-224 222 0
-206 225 0
-207 225 0
-208 225 0
-209 225 0
-210 225 0
-211 225 0
226 0
227 -225 0
-227 225 0
228 -225 0
-228 225 0
229 -225 0
-229 225 0
230 -225 0
-230 225 0
231 -225 0
-231 225 0
232 -225 0
-232 225 0
-176 233 0
-177 233 0
-178 233 0
-179 233 0
233 -234 0
-235 233 0
-236 233 0
233 -237 0
238 0
11 -233 0
-11 233 0
-176 239 0
-177 239 0
-178 239 0
-179 239 0
-235 239 0
-236 239 0
-237 239 0
240 0
241 -239 0
-241 239 0
-176 242 0
-177 242 0
-178 242 0
-179 242 0
-236 242 0
-237 242 0
243 0
244 -242 0
-244 242 0
-176 245 0
-177 245 0
-178 245 0
-179 245 0
-237 245 0
176 177 178 179 237 -245 0
246 -245 0
-246 245 0
-247 248 0
-249 248 0
248 -250 0
-251 248 0
248 -252 0
248 -253 0
254 0
12 -248 0
-12 248 0
-249 255 0
-250 255 0
-251 255 0
-252 255 0
-253 255 0
249 250 251 252 253 -255 0
256 -255 0
-256 255 0
257 -255 0
-257 255 0
258 -255 0
-258 255 0
259 -255 0
-259 255 0
260 -255 0
-260 255 0
261 -262 0
261 -263 0
261 -264 0
-265 261 0
261 -266 0
-267 261 0
-268 261 0
269 0
13 -261 0
-13 261 0
-263 270 0
-264 270 0
-265 270 0
-266 270 0
-267 270 0
-268 270 0
271 0
272 -270 0
-272 270 0
273 -270 0
-273 270 0
274 -270 0
-274 270 0
275 -270 0
-275 270 0
276 -270 0
-276 270 0
277 -270 0
-277 270 0
278 -279 0
278 -280 0
278 -281 0
278 -282 0
-283 278 0
-284 278 0
-285 278 0
-286 278 0
278 -287 0
288 0
14 -278 0
-14 278 0
-280 289 0
-281 289 0
-282 289 0
-283 289 0
-284 289 0
-285 289 0
-286 289 0
-287 289 0
290 0
291 -289 0
-291 289 0
-281 292 0
-282 292 0
-283 292 0
-284 292 0
-285 292 0
-286 292 0
-287 292 0
293 0
294 -292 0
-294 292 0
-282 295 0
-283 295 0
-284 295 0
-285 295 0
-286 295 0
-287 295 0
296 0
297 -295 0
-297 295 0
-283 298 0
-284 298 0
-285 298 0
-286 298 0
-287 298 0
283 284 285 286 287 -298 0
299 -298 0
-299 298 0
-284 300 0
-285 300 0
-286 300 0
-287 300 0
284 285 286 287 -300 0
301 -300 0
-301 300 0
302 -300 0
-302 300 0
15 -300 0
-15 300 0
303 -300 0
-303 300 0
-247 304 0
-249 304 0
-250 304 0
-251 304 0
-252 304 0
-253 304 0
304 -305 0
-306 304 0
-307 304 0
304 -308 0
309 0
16 -304 0
-16 304 0
-247 310 0
-249 310 0
-250 310 0
-251 310 0
-252 310 0
-253 310 0
-306 310 0
-307 310 0
-308 310 0
311 0
312 -310 0
-312 310 0
-247 313 0
-249 313 0
-250 313 0
-251 313 0
-252 313 0
-253 313 0
-307 313 0
-308 313 0
314 0
315 -313 0
-315 313 0
-247 316 0
-249 316 0
-250 316 0
-251 316 0
-252 316 0
-253 316 0
-308 316 0
317 0
318 -316 0
-318 316 0
319 -320 0
319 -321 0
319 -322 0
-323 319 0
-324 319 0
-325 319 0
-326 319 0
319 -327 0
319 -328 0
-329 319 0
-330 319 0
319 -331 0
332 0
17 -319 0
-17 319 0
-321 333 0
-322 333 0
-323 333 0
-324 333 0
-325 333 0
-326 333 0
-327 333 0
-328 333 0
-329 333 0
-330 333 0
-331 333 0
334 0
335 -333 0
-335 333 0
-322 336 0
-323 336 0
-324 336 0
-325 336 0
-326 336 0
-327 336 0
-328 336 0
-329 336 0
-330 336 0
-331 336 0
337 0
338 -336 0
-338 336 0
-323 339 0
-324 339 0
-325 339 0
-326 339 0
-327 339 0
-328 339 0
-329 339 0
-330 339 0
-331 339 0
340 0
341 -339 0
-341 339 0
-324 342 0
-325 342 0
-326 342 0
-327 342 0
-328 342 0
-329 342 0
-330 342 0
-331 342 0
343 0
344 -342 0
-344 342 0
-325 345 0
-326 345 0
-327 345 0
-328 345 0
-329 345 0
-330 345 0
-331 345 0
346 0
347 -345 0
-347 345 0
-326 348 0
-327 348 0
-328 348 0
-329 348 0
-330 348 0
-331 348 0
349 0
350 -348 0
-350 348 0
351 -348 0
-351 348 0
352 -348 0
-352 348 0
353 -348 0
-353 348 0
354 -348 0
-354 348 0
355 -348 0
-355 348 0
-356 357 0
-358 357 0
-359 357 0
-360 357 0
357 -361 0
-362 357 0
-363 357 0
357 -364 0
365 0
18 -357 0
-18 357 0
-358 366 0
-359 366 0
-360 366 0
-361 366 0
-362 366 0
-363 366 0
-364 366 0
367 0
368 -366 0
-368 366 0
-359 369 0
-360 369 0
-361 369 0
-362 369 0
-363 369 0
-364 369 0
370 0
371 -369 0
-371 369 0
-360 372 0
-361 372 0
-362 372 0
-363 372 0
-364 372 0
360 361 362 363 364 -372 0
373 -372 0
-373 372 0
-361 374 0
-362 374 0
-363 374 0
-364 374 0
361 362 363 364 -374 0
375 -374 0
-375 374 0
376 -374 0
-376 374 0
377 -374 0
-377 374 0
378 -374 0
-378 374 0
-379 380 0
-381 380 0
380 -382 0
380 -383 0
380 -384 0
380 -385 0
380 -386 0
380 -387 0
-388 380 0
389 0
19 -380 0
-19 380 0
-381 390 0
-382 390 0
-383 390 0
-384 390 0
-385 390 0
-386 390 0
-387 390 0
-388 390 0
391 0
392 -390 0
-392 390 0
-382 393 0
-383 393 0
-384 393 0
-385 393 0
-386 393 0
-387 393 0
-388 393 0
394 0
395 -393 0
-395 393 0
-383 396 0
-384 396 0
-385 396 0
-386 396 0
-387 396 0
-388 396 0
397 0
398 -396 0
-398 396 0
399 -396 0
-399 396 0
400 -396 0
-400 396 0
401 -396 0
-401 396 0
402 -396 0
-402 396 0
403 -396 0
-403 396 0
-88 404 0
-89 404 0
-90 404 0
-91 404 0
-92 404 0
-93 404 0
-405 404 0
404 -406 0
404 -407 0
-408 404 0
-409 404 0
410 0
20 -404 0
-20 404 0
-88 411 0
-89 411 0
-90 411 0
-91 411 0
-92 411 0
-93 411 0
-406 411 0
-407 411 0
-408 411 0
-409 411 0
412 0
413 -411 0
-413 411 0
-88 414 0
-89 414 0
-90 414 0
-91 414 0
-92 414 0
-93 414 0
-407 414 0
-408 414 0
-409 414 0
415 0
416 -414 0
-416 414 0
-88 417 0
-89 417 0
-90 417 0
-91 417 0
-92 417 0
-93 417 0
-408 417 0
-409 417 0
418 0
419 -417 0
-419 417 0
-88 420 0
-89 420 0
-90 420 0
-91 420 0
-92 420 0
-93 420 0
-409 420 0
421 0
422 -420 0
-422 420 0
-361 423 0
-362 423 0
-363 423 0
-364 423 0
-424 423 0
-425 423 0
-426 423 0
-427 423 0
423 -428 0
-429 423 0
430 0
21 -423 0
-21 423 0
-361 431 0
-362 431 0
-363 431 0
-364 431 0
-425 431 0
-426 431 0
-427 431 0
-428 431 0
-429 431 0
432 0
433 -431 0
-433 431 0
-361 434 0
-362 434 0
-363 434 0
-364 434 0
-426 434 0
-427 434 0
-428 434 0
-429 434 0
435 0
436 -434 0
-436 434 0
-361 437 0
-362 437 0
-363 437 0
-364 437 0
-427 437 0
-428 437 0
-429 437 0
438 0
439 -437 0
-439 437 0
-361 440 0
-362 440 0
-363 440 0
-364 440 0
-428 440 0
-429 440 0
441 0
442 -440 0
-442 440 0
-361 443 0
-362 443 0
-363 443 0
-364 443 0
-429 443 0
361 362 363 364 429 -443 0
444 -443 0
-444 443 0
-284 445 0
-285 445 0
-286 445 0
-287 445 0
445 -446 0
445 -447 0
445 -448 0
-449 445 0
-450 445 0
445 -451 0
-452 445 0
-453 445 0
445 -454 0
455 0
22 -445 0
-22 445 0
-284 456 0
-285 456 0
-286 456 0
-287 456 0
-447 456 0
-448 456 0
-449 456 0
-450 456 0
-451 456 0
-452 456 0
-453 456 0
-454 456 0
457 0
458 -456 0
-458 456 0
-284 459 0
-285 459 0
-286 459 0
-287 459 0
-448 459 0
-449 459 0
-450 459 0
-451 459 0
-452 459 0
-453 459 0
-454 459 0
460 0
461 -459 0
-461 459 0
-284 462 0
-285 462 0
-286 462 0
-287 462 0
-449 462 0
-450 462 0
-451 462 0
-452 462 0
-453 462 0
-454 462 0
463 0
464 -462 0
-464 462 0
-284 465 0
-285 465 0
-286 465 0
-287 465 0
-450 465 0
-451 465 0
-452 465 0
-453 465 0
-454 465 0
466 0
467 -465 0
-467 465 0
-284 468 0
-285 468 0
-286 468 0
-287 468 0
-451 468 0
-452 468 0
-453 468 0
-454 468 0
469 0
470 -468 0
-470 468 0
-284 471 0
-285 471 0
-286 471 0
-287 471 0
-452 471 0
-453 471 0
-454 471 0
472 0
473 -471 0
-473 471 0
-284 474 0
-285 474 0
-286 474 0
-287 474 0
-453 474 0
-454 474 0
475 0
476 -474 0
-476 474 0
-284 477 0
-285 477 0
-286 477 0
-287 477 0
-454 477 0
284 285 286 287 454 -477 0
478 -477 0
-478 477 0
-361 479 0
-362 479 0
-363 479 0
-364 479 0
-428 479 0
-429 479 0
479 -480 0
-481 479 0
479 -482 0
483 0
23 -479 0
-23 479 0
-361 484 0
-362 484 0
-363 484 0
-364 484 0
-428 484 0
-429 484 0
-481 484 0
-482 484 0
485 0
486 -484 0
-486 484 0
-361 487 0
-362 487 0
-363 487 0
-364 487 0
-428 487 0
-429 487 0
-482 487 0
488 0
489 -487 0
-489 487 0
-490 491 0
-492 491 0
491 -493 0
-494 491 0
491 -495 0
491 -496 0
-497 491 0
-498 491 0
-499 491 0
491 -500 0
491 -501 0
-502 491 0
503 0
24 -491 0
-24 491 0
-492 504 0
-493 504 0
-494 504 0
-495 504 0
-496 504 0
-497 504 0
-498 504 0
-499 504 0
-500 504 0
-501 504 0
-502 504 0
505 0
506 -504 0
-506 504 0
-493 507 0
-494 507 0
-495 507 0
-496 507 0
-497 507 0
-498 507 0
-499 507 0
-500 507 0
-501 507 0
-502 507 0
508 0
509 -507 0
-509 507 0
-494 510 0
-495 510 0
-496 510 0
-497 510 0
-498 510 0
-499 510 0
-500 510 0
-501 510 0
-502 510 0
511 0
512 -510 0
-512 510 0
-495 513 0
-496 513 0
-497 513 0
-498 513 0
-499 513 0
-500 513 0
-501 513 0
-502 513 0
514 0
515 -513 0
-515 513 0
-496 516 0
-497 516 0
-498 516 0
-499 516 0
-500 516 0
-501 516 0
-502 516 0
517 0
518 -516 0
-518 516 0
-497 519 0
-498 519 0
-499 519 0
-500 519 0
-501 519 0
-502 519 0
520 0
521 -519 0
-521 519 0
522 -519 0
-522 519 0
523 -519 0
-523 519 0
524 -519 0
-524 519 0
525 -519 0
-525 519 0
526 -519 0
-526 519 0
-249 527 0
-250 527 0
-251 527 0
-252 527 0
-253 527 0
527 -528 0
527 -529 0
527 -530 0
531 0
25 -527 0
-25 527 0
-249 532 0
-250 532 0
-251 532 0
-252 532 0
-253 532 0
-529 532 0
-530 532 0
533 0
534 -532 0
-534 532 0
-249 535 0
-250 535 0
-251 535 0
-252 535 0
-253 535 0
-530 535 0
536 0
537 -535 0
-537 535 0
-360 538 0
-361 538 0
-362 538 0
-363 538 0
-364 538 0
538 -539 0
540 0
26 -538 0
-26 538 0
28 -541 0
-541 -29 0
-541 -30 0
-541 -31 0
32 -541 0
33 -541 0
34 -541 0
35 -541 0
36 -541 0
-541 -37 0
-541 -38 0
-541 -60 0
-541 -62 0
63 -541 0
-541 -64 0
65 -541 0
66 -541 0
-541 -67 0
-541 -68 0
83 -541 0
-541 -84 0
85 -541 0
86 -541 0
87 -541 0
88 -541 0
-541 -89 0
-541 -90 0
-541 -91 0
92 -541 0
-541 -93 0
116 -541 0
117 -541 0
118 -541 0
-541 -119 0
131 -541 0
132 -541 0
-541 -133 0
134 -541 0
-541 -145 0
147 -541 0
148 -541 0
-541 -149 0
155 -541 0
-541 -156 0
157 -541 0
-541 -158 0
-541 -169 0
-541 -171 0
-541 -172 0
173 -541 0
-541 -174 0
-541 -175 0
176 -541 0
-541 -177 0
178 -541 0
179 -541 0
201 -541 0
202 -541 0
-541 -203 0
-541 -204 0
-541 -205 0
206 -541 0
-541 -207 0
-541 -208 0
-541 -209 0
210 -541 0
211 -541 0
234 -541 0
-541 -235 0
-541 -236 0
237 -541 0
-541 -247 0
-541 -249 0
250 -541 0
-541 -251 0
252 -541 0
253 -541 0
262 -541 0
263 -541 0
264 -541 0
-541 -265 0
266 -541 0
-541 -267 0
-541 -268 0
279 -541 0
280 -541 0
281 -541 0
282 -541 0
-541 -283 0
-541 -284 0
-541 -285 0
-541 -286 0
287 -541 0
305 -541 0
-541 -306 0
-541 -307 0
308 -541 0
320 -541 0
321 -541 0
322 -541 0
-541 -323 0
-541 -324 0
-541 -325 0
-541 -326 0
327 -541 0
328 -541 0
-541 -329 0
-541 -330 0
331 -541 0
-541 -356 0
-541 -358 0
-541 -359 0
-541 -360 0
361 -541 0
-541 -362 0
-541 -363 0
364 -541 0
-541 -379 0
-541 -381 0
382 -541 0
383 -541 0
384 -541 0
385 -541 0
386 -541 0
387 -541 0
-541 -388 0
-541 -405 0
406 -541 0
407 -541 0
-541 -408 0
-541 -409 0
-541 -424 0
-541 -425 0
-541 -426 0
-541 -427 0
428 -541 0
-541 -429 0
446 -541 0
447 -541 0
448 -541 0
-541 -449 0
-541 -450 0
451 -541 0
-541 -452 0
-541 -453 0
454 -541 0
480 -541 0
-541 -481 0
482 -541 0
-541 -490 0
-541 -492 0
493 -541 0
-541 -494 0
495 -541 0
496 -541 0
-541 -497 0
-541 -498 0
-541 -499 0
500 -541 0
501 -541 0
-541 -502 0
528 -541 0
529 -541 0
530 -541 0
539 -541 0
541 0
-542 0
-543 0
-544 0
-545 0
-546 0
-547 0
-548 0
-549 0
